Route #1: 29 57 63 31 40 13 54 85 21
Route #2: 82 94 64 105 69 17 2 83 77 101
Route #3: 96 51 60 87 76 15 5
Route #4: 97 49 99 11 74 34 72
Route #5: 44 53 103 28 93 43 100 45
Route #6: 14 58 88 91 36 8 48 67
Route #7: 7 75 84 9 12 104 1
Route #8: 52 92 102 24 90 26 62
Route #9: 22 33
Route #10: 66 46 71 79 37 27 19 78
Route #11: 86 18 41 10 16 20 56
Route #12: 59 89 30 42 23 3 32 73 35
Route #13: 55 98 4 70 6 81 50 39
Route #14: 68 95 38 65 80 61 47 25
Cost 26374
